Executando Fernandes MODIFICADO
Rodando pra 1h
Optimize a model with 135 rows, 140 columns and 1716 nonzeros
Coefficient statistics:
  Matrix range    [1e+00, 1e+07]
  Objective range [2e-01, 8e-01]
  Bounds range    [1e+00, 1e+07]
  RHS range       [1e+00, 4e+00]
Found heuristic solution: objective 303
Presolve removed 81 rows and 18 columns
Presolve time: 0.00s
Presolved: 54 rows, 122 columns, 490 nonzeros
Variable types: 20 continuous, 102 integer (100 binary)

Root relaxation: objective 4.938235e+01, 54 iterations, 0.00 seconds

    Nodes    |    Current Node    |     Objective Bounds      |     Work
 Expl Unexpl |  Obj  Depth IntInf | Incumbent    BestBd   Gap | It/Node Time

     0     0   49.38235    0   18  303.00000   49.38235  83.7%     -    0s
H    0     0                     214.0000000   49.38235  76.9%     -    0s
     0     0  102.43305    0   24  214.00000  102.43305  52.1%     -    0s
     0     0  112.15069    0   20  214.00000  112.15069  47.6%     -    0s
     0     0  112.16537    0   21  214.00000  112.16537  47.6%     -    0s
     0     0  119.96320    0   20  214.00000  119.96320  43.9%     -    0s
     0     0  120.00174    0   20  214.00000  120.00174  43.9%     -    0s
     0     0  120.85250    0   20  214.00000  120.85250  43.5%     -    0s
     0     0  120.85250    0   12  214.00000  120.85250  43.5%     -    0s
H    0     0                     210.6000000  120.85250  42.6%     -    0s
     0     2  120.99947    0   10  210.60000  120.99947  42.5%     -    0s
*  210    42               6     208.0000000  162.40000  21.9%   4.5    0s
*  276    47              14     204.0000000  164.00000  19.6%   4.3    0s
*  512    56              13     202.0000000  184.80000  8.51%   3.9    0s

Cutting planes:
  Gomory: 3
  MIR: 17
  Flow cover: 21
  Flow path: 2
  Zero half: 1
  Network: 1

Explored 671 nodes (2792 simplex iterations) in 0.12 seconds
Thread count was 1 (of 4 available processors)

Optimal solution found (tolerance 1.00e-04)
Best objective 2.020000000000e+02, best bound 2.020000000000e+02, gap 0.0%
Tempo: 0.12 segundos

0 4 85 69 71 86 41 76 27 92 24 68 
1 3 0 76 0 78 14 12 64 42 12 6 
1 4 72 36 15 48 32 49 71 20 20 90 
2 3 70 27 51 19 21 60 65 58 30 28 
(227 208 137 231 108 197 227 212 86 192 )

